db/data/32678195524863114801592542338930326.z3.out
sat
-------------------
133.237747421
